sat
(:max-memory                   18.05
 :memory                       18.05
 :nlsat-irrational-assignments 1
 :nlsat-propagations           6
 :nlsat-stages                 5
 :num-allocs                   22741
 :rlimit-count                 1066
 :time                         0.00
 :total-time                   0.01)
